329104.0
3991
0 1 5 6 7 10 12 13 14 15 16 18 19 20 21 22 23 25 26 27 28 29 32 33 34 35 36 41 44 45 46 48 49 50 51 52 54 55 56 57 58 61 62 63 64 65 66 68 69 70 71 73 74 75 76 77 78 79 80 81 82 84 86 87 88 90 91 92 93 95 96 97 98 99 100 101 104 106 108 109 110 111 112 113 114 115 116 117 118 119 120 121 123 124 127 129 130 131 135 138 139 140 141 143 144 145 148 149 150 154 155 156 157 159 163 164 165 166 168 170 171 173 175 176 177 178 179 180 181 184 185 186 187 190 191 192 193 195 198 